c Random generated cnf formula, satisfiable: false
p cnf 10 50
-8 4 1 0
4 9 -8 0
-9 -4 -7 0
10 2 -1 0
-9 7 -3 0
10 -6 -4 0
-10 2 -6 0
5 -1 9 0
-7 -4 -3 0
6 -10 8 0
-4 -1 -9 0
-5 1 3 0
-3 -9 5 0
-8 -9 4 0
-6 -7 -9 0
-2 -5 -6 0
6 -10 -5 0
-5 -8 9 0
6 -5 -2 0
-10 -5 3 0
-1 2 9 0
-9 6 3 0
4 2 10 0
-6 -10 -5 0
-3 -4 -6 0
-10 1 -2 0
-3 -1 6 0
-10 1 3 0
-9 -8 5 0
3 8 5 0
9 7 -8 0
7 5 1 0
7 1 -10 0
-7 -8 -4 0
3 8 2 0
-6 -5 4 0
-4 -5 9 0
-10 8 -3 0
-5 -7 2 0
7 -3 -8 0
-10 7 5 0
9 8 -6 0
4 3 7 0
-6 -2 -10 0
9 -5 6 0
9 -10 -5 0
1 8 -9 0
8 5 -7 0
2 -7 -3 0
-8 -6 -9 0
